** Boungard and Wackerfuss (2024), Section 6.2 / Figure 11
** Rolling up a beam with a nonlinear shear-force release.
** B = 1 m per half, EA = 1 kN, EI = 1 kN*m^2.
** Eight geometrically exact 3D CR beam elements are restricted to XY motion.
** Coincident nodes 2 and 3 are coupled by Eq. (45).
** SlaveDirection 05 selects the two-equation planar shear-release MPC.
** The present CR3D Newton solver uses 399 refined increments; the paper's
** 29-step strategy A is retained as the reference path for future
** continuation/line-search improvements.

*NODE, 10
1, 0.00, 0.0, 0.0
2, 1.00, 0.0, 0.0
3, 1.00, 0.0, 0.0
4, 2.00, 0.0, 0.0
5, 0.25, 0.0, 0.0
6, 0.50, 0.0, 0.0
7, 0.75, 0.0, 0.0
8, 1.25, 0.0, 0.0
9, 1.50, 0.0, 0.0
10, 1.75, 0.0, 0.0

*MATERIAL, 1
1, 1.0e7, 0.0, 0.0, 0.0, 0.0

*SECTION, 1
1, 1.0e-7

*ELEMENT, CR3D, 8
1, 1, 5, 1, 1, 0.0, 1.0, 0.0
2, 5, 6, 1, 1, 0.0, 1.0, 0.0
3, 6, 7, 1, 1, 0.0, 1.0, 0.0
4, 7, 2, 1, 1, 0.0, 1.0, 0.0
5, 3, 8, 1, 1, 0.0, 1.0, 0.0
6, 8, 9, 1, 1, 0.0, 1.0, 0.0
7, 9, 10, 1, 1, 0.0, 1.0, 0.0
8, 10, 4, 1, 1, 0.0, 1.0, 0.0

*CONSTRAINT, 36
1, 1, 2, 0.0
2, 1, 3, 0.0
3, 1, 4, 0.0
4, 2, 2, 0.0
5, 2, 3, 0.0
6, 2, 4, 0.0
7, 3, 2, 0.0
8, 3, 3, 0.0
9, 3, 4, 0.0
10, 4, 2, 0.0
11, 4, 3, 0.0
12, 4, 4, 0.0
13, 5, 2, 0.0
14, 5, 3, 0.0
15, 5, 4, 0.0
16, 6, 2, 0.0
17, 6, 3, 0.0
18, 6, 4, 0.0
19, 7, 2, 0.0
20, 7, 3, 0.0
21, 7, 4, 0.0
22, 8, 2, 0.0
23, 8, 3, 0.0
24, 8, 4, 0.0
25, 9, 2, 0.0
26, 9, 3, 0.0
27, 9, 4, 0.0
28, 10, 2, 0.0
29, 10, 3, 0.0
30, 10, 4, 0.0
31, 1, 0, 0.0
32, 1, 1, 0.0
33, 1, 5, 0.0
34, 4, 1, 0.0
35, 4, 5, 0.0
36, 2, 5, 6.283185307179586

*MPC, 1
1, 2, 3, 05

*ANALYSIS_STEP, 1
1, STATIC, 1.0, 0.002506265664160401, 1.0e-8, 100
